Data path: /scratch/opt/lxu/CFLG/benchmarks/random_A
Instance: r_20_0.2_34.txt
Result path: /scratch/opt/lxu/CFLG/results/random_A
Solver: Gurobi
Time limit: 3600
Formulation: LEFP
Cover: Small
julia --project=. src/main.jl /scratch/opt/lxu/CFLG/benchmarks/random_A r_20_0.2_34.txt /scratch/opt/lxu/CFLG/results/random_A Gurobi 3600 LEFP Small
The latest version of Julia in the `release` channel is 1.11.5+0.x64.linux.gnu. You currently have `1.11.4+0.x64.linux.gnu` installed. Run:

  juliaup update

in your terminal shell to install Julia 1.11.5+0.x64.linux.gnu and update the `release` channel to that version.
/scratch/opt/lxu/CFLG/benchmarks/random_A Gurobi 3600.0 /scratch/opt/lxu/CFLG/results/random_A r_20_0.2_34.txt LEFP Small
/scratch/opt/lxu/CFLG/benchmarks/random_A/r_20_0.2_34.txt

 read graph
data loaded


after absorb:17 20

max_piece:12
problem_graph/original graph: node: 22/20 edge: 36/34 dlt: 0.15356760412703901 break_avg_len: 0.5801442822577029 break_max_len: 1.671255587357936Set parameter TokenServer to value "solice01.zib.de"
Set parameter Threads to value 1
Set parameter OutputFlag to value 1
Gurobi Optimizer version 12.0.1 build v12.0.1rc0 (linux64 - "Debian GNU/Linux 12 (bookworm)")

CPU model: Intel(R) Xeon(R) Gold 5122 CPU @ 3.60GHz, instruction set [SSE2|AVX|AVX2|AVX512]
Thread count: 8 physical cores, 16 logical processors, using up to 1 threads

Non-default parameters:
Threads  1

Optimize a model with 58 rows, 108 columns and 180 nonzeros
Model fingerprint: 0x421ca69d
Coefficient statistics:
  Matrix range     [1e+00, 1e+00]
  Objective range  [1e+00, 1e+00]
  Bounds range     [1e+00, 1e+00]
  RHS range        [1e+00, 1e+00]
Presolve removed 58 rows and 108 columns
Presolve time: 0.00s
Presolve: All rows and columns removed
Iteration    Objective       Primal Inf.    Dual Inf.      Time
       0    3.0000000e+00   0.000000e+00   0.000000e+00      0s

Solved in 0 iterations and 0.00 seconds (0.00 work units)
Optimal objective  3.000000000e+00

User-callback calls 36, time in user-callback 0.01 sec
elapsed CPU time: 1.273885 seconds
Set parameter TokenServer to value "solice01.zib.de"
Set parameter Threads to value 1
Set parameter OutputFlag to value 1
Set parameter MIPGap to value 0.0001
Set parameter MIPGapAbs to value 1
Set parameter TimeLimit to value 3598.726115

 more cuts:falsefalse
1 2
formulation:LEFP26 10 6

 model loaded

Gurobi Optimizer version 12.0.1 build v12.0.1rc0 (linux64 - "Debian GNU/Linux 12 (bookworm)")

CPU model: Intel(R) Xeon(R) Gold 5122 CPU @ 3.60GHz, instruction set [SSE2|AVX|AVX2|AVX512]
Thread count: 8 physical cores, 16 logical processors, using up to 1 threads

Non-default parameters:
TimeLimit  3598.726115
MIPGapAbs  1
Threads  1

Optimize a model with 593 rows, 362 columns and 1304 nonzeros
Model fingerprint: 0x22edec7e
Variable types: 94 continuous, 268 integer (268 binary)
Coefficient statistics:
  Matrix range     [1e-02, 1e+00]
  Objective range  [1e+00, 1e+00]
  Bounds range     [1e-01, 2e+00]
  RHS range        [2e-02, 2e+00]
Presolve removed 354 rows and 149 columns
Presolve time: 0.01s
Presolved: 239 rows, 213 columns, 903 nonzeros
Variable types: 80 continuous, 133 integer (133 binary)
Found heuristic solution: objective 68.0000000

Root relaxation: objective 5.600000e+01, 127 iterations, 0.00 seconds (0.00 work units)

    Nodes    |    Current Node    |     Objective Bounds      |     Work
 Expl Unexpl |  Obj  Depth IntInf | Incumbent    BestBd   Gap | It/Node Time

     0     0   56.00000    0   31   68.00000   56.00000  17.6%     -    0s
H    0     0                      67.0000000   56.00000  16.4%     -    0s
H    0     0                      63.0000000   56.00000  11.1%     -    0s
H    0     0                      62.0000000   56.00000  9.68%     -    0s
     0     0   56.52707    0   44   62.00000   56.52707  8.83%     -    0s
     0     0   56.57641    0   41   62.00000   56.57641  8.75%     -    0s
     0     0   56.57641    0   41   62.00000   56.57641  8.75%     -    0s
     0     0   57.36107    0   50   62.00000   57.36107  7.48%     -    0s
     0     0   57.52774    0   50   62.00000   57.52774  7.21%     -    0s
     0     0   57.66983    0   59   62.00000   57.66983  6.98%     -    0s
     0     0   57.72895    0   53   62.00000   57.72895  6.89%     -    0s
     0     0   57.72895    0   55   62.00000   57.72895  6.89%     -    0s
     0     0   59.00000    0   35   62.00000   59.00000  4.84%     -    0s
     0     0   59.00000    0   41   62.00000   59.00000  4.84%     -    0s
     0     0   59.00000    0   34   62.00000   59.00000  4.84%     -    0s
     0     0   59.00000    0   37   62.00000   59.00000  4.84%     -    0s
     0     0   59.00000    0   35   62.00000   59.00000  4.84%     -    0s
     0     0   59.00000    0   23   62.00000   59.00000  4.84%     -    0s
     0     2   59.00000    0   22   62.00000   59.00000  4.84%     -    0s
*  107    34              20      61.0000000   59.00000  3.28%  15.0    0s

Cutting planes:
  Gomory: 10
  Cover: 57
  Implied bound: 25
  Clique: 4
  MIR: 87
  StrongCG: 2
  GUB cover: 8
  RLT: 4
  Relax-and-lift: 13
  BQP: 3

Explored 458 nodes (9224 simplex iterations) in 0.33 seconds (0.18 work units)
Thread count was 1 (of 16 available processors)

Solution count 5: 61 62 63 ... 68
No other solutions better than 61

Optimal solution found (tolerance 1.00e-04)
Best objective 6.099999999289e+01, best bound 6.099999999289e+01, gap 0.0000%

User-callback calls 1811, time in user-callback 0.00 sec

 sepatime0
60.99999999289359Stat(MathOptInterface.OPTIMAL, 60.99999999289359, 60.99999999289359, 0.0, 0.0, 1.273885, 0.3339521884918213, 458, Main.CFLG.LEFP, "", #undef)
